
























































































16 
2 54 51 
14 48 17 
73 1 8 
70 68 10 23 
71 3 29 
0 39 60 
42 75 65 
21 35 38 
56 49 64 
30 24 58 
61 66 34 
15 46 20 
62 13 19 
31 18 32 
37 63 40 
41 53 5 
69 67 27 
50 25 9 
74 43 28 12 
26 55 59 
72 52 22 
11 4 45 
36 6 
44 76 7 
33 47 57 
